; Bottom-up merge sort
(declare-datatypes (a)
  ((list :source |Prelude.[]| (nil :source |Prelude.[]|)
     (cons :source |Prelude.:| (head a) (tail (list a))))))
(declare-datatypes () ((Nat (Z) (S (p Nat)))))
(define-fun-rec
  (par (a)
    (ordered-ordered1 :let :source SortUtils.ordered
       ((x (list a))) Bool
       (match x
         (case nil true)
         (case (cons y z)
           (match z
             (case nil true)
             (case (cons y2 xs) (and (<= y y2) (ordered-ordered1 z)))))))))
(define-fun-rec
  (par (a b)
    (map :let :source Prelude.map
       ((f (=> a b)) (x (list a))) (list b)
       (match x
         (case nil (as nil (list b)))
         (case (cons y xs) (cons (@ f y) (map f xs)))))))
(define-fun-rec
  (par (a)
    (lmerge :source Sort.lmerge
       ((x (list a)) (y (list a))) (list a)
       (match x
         (case nil y)
         (case (cons z x2)
           (match y
             (case nil x)
             (case (cons x3 x4)
               (ite
                 (<= z x3) (cons z (lmerge x2 y)) (cons x3 (lmerge x x4))))))))))
(define-fun-rec
  (par (a)
    (pairwise-pairwise1 :let :source Sort.pairwise
       ((x (list (list a)))) (list (list a))
       (match x
         (case nil (as nil (list (list a))))
         (case (cons xs y)
           (match y
             (case nil (cons xs (as nil (list (list a)))))
             (case (cons ys xss)
               (cons (lmerge xs ys) (pairwise-pairwise1 xss)))))))))
(define-fun-rec
  (par (a)
    (mergingbu :source Sort.mergingbu
       ((x (list (list a)))) (list a)
       (match x
         (case nil (as nil (list a)))
         (case (cons xs y)
           (match y
             (case nil xs)
             (case (cons z x2) (mergingbu (pairwise-pairwise1 x)))))))))
(define-fun
  (par (a)
    (msortbu :source Sort.msortbu
       ((x (list a))) (list a)
       (mergingbu (map (lambda ((y a)) (cons y (as nil (list a)))) x)))))
(prove
  :source Sort.prop_MSortBUSorts
  (forall ((x (list Nat))) (ordered-ordered1 (msortbu x))))
